Problem:    peliculas
Rows:       81
Columns:    77 (77 integer, 77 binary)
Non-zeros:  286
Status:     INTEGER OPTIMAL
Objective:  Z = 146.75 (MINimum)

   No.   Row name        Activity     Lower bound   Upper bound
------ ------------    ------------- ------------- -------------
     1 Z                      146.75                             
     2 cadaPeliculaUnaVez[1]
                                   1             1             = 
     3 cadaPeliculaUnaVez[2]
                                   1             1             = 
     4 cadaPeliculaUnaVez[3]
                                   1             1             = 
     5 cadaPeliculaUnaVez[4]
                                   1             1             = 
     6 cadaPeliculaUnaVez[5]
                                   1             1             = 
     7 cadaPeliculaUnaVez[6]
                                   1             1             = 
     8 cadaPeliculaUnaVez[7]
                                   1             1             = 
     9 cadaPeliculaUnaVez[8]
                                   1             1             = 
    10 cadaPeliculaUnaVez[9]
                                   1             1             = 
    11 cadaPeliculaUnaVez[10]
                                   1             1             = 
    12 vePeliculaSiVisitaLaCiudad[1,1]
                                   0                          -0 
    13 vePeliculaSiVisitaLaCiudad[1,2]
                                   0                          -0 
    14 vePeliculaSiVisitaLaCiudad[1,3]
                                   0                          -0 
    15 vePeliculaSiVisitaLaCiudad[1,4]
                                   0                          -0 
    16 vePeliculaSiVisitaLaCiudad[1,5]
                                   0                          -0 
    17 vePeliculaSiVisitaLaCiudad[1,6]
                                   0                          -0 
    18 vePeliculaSiVisitaLaCiudad[1,7]
                                   0                          -0 
    19 vePeliculaSiVisitaLaCiudad[1,8]
                                   0                          -0 
    20 vePeliculaSiVisitaLaCiudad[1,9]
                                   0                          -0 
    21 vePeliculaSiVisitaLaCiudad[1,10]
                                   0                          -0 
    22 vePeliculaSiVisitaLaCiudad[2,1]
                                  -1                          -0 
    23 vePeliculaSiVisitaLaCiudad[2,2]
                                  -1                          -0 
    24 vePeliculaSiVisitaLaCiudad[2,3]
                                  -1                          -0 
    25 vePeliculaSiVisitaLaCiudad[2,4]
                                  -1                          -0 
    26 vePeliculaSiVisitaLaCiudad[2,5]
                                  -1                          -0 
    27 vePeliculaSiVisitaLaCiudad[2,6]
                                   0                          -0 
    28 vePeliculaSiVisitaLaCiudad[2,7]
                                  -1                          -0 
    29 vePeliculaSiVisitaLaCiudad[2,8]
                                   0                          -0 
    30 vePeliculaSiVisitaLaCiudad[2,9]
                                  -1                          -0 
    31 vePeliculaSiVisitaLaCiudad[2,10]
                                  -1                          -0 
    32 vePeliculaSiVisitaLaCiudad[3,1]
                                  -1                          -0 
    33 vePeliculaSiVisitaLaCiudad[3,2]
                                   0                          -0 
    34 vePeliculaSiVisitaLaCiudad[3,3]
                                  -1                          -0 
    35 vePeliculaSiVisitaLaCiudad[3,4]
                                  -1                          -0 
    36 vePeliculaSiVisitaLaCiudad[3,5]
                                   0                          -0 
    37 vePeliculaSiVisitaLaCiudad[3,6]
                                  -1                          -0 
    38 vePeliculaSiVisitaLaCiudad[3,7]
                                   0                          -0 
    39 vePeliculaSiVisitaLaCiudad[3,8]
                                  -1                          -0 
    40 vePeliculaSiVisitaLaCiudad[3,9]
                                  -1                          -0 
    41 vePeliculaSiVisitaLaCiudad[3,10]
                                  -1                          -0 
    42 vePeliculaSiVisitaLaCiudad[4,1]
                                   0                          -0 
    43 vePeliculaSiVisitaLaCiudad[4,2]
                                   0                          -0 
    44 vePeliculaSiVisitaLaCiudad[4,3]
                                   0                          -0 
    45 vePeliculaSiVisitaLaCiudad[4,4]
                                   0                          -0 
    46 vePeliculaSiVisitaLaCiudad[4,5]
                                   0                          -0 
    47 vePeliculaSiVisitaLaCiudad[4,6]
                                   0                          -0 
    48 vePeliculaSiVisitaLaCiudad[4,7]
                                   0                          -0 
    49 vePeliculaSiVisitaLaCiudad[4,8]
                                   0                          -0 
    50 vePeliculaSiVisitaLaCiudad[4,9]
                                   0                          -0 
    51 vePeliculaSiVisitaLaCiudad[4,10]
                                   0                          -0 
    52 vePeliculaSiVisitaLaCiudad[5,1]
                                   0                          -0 
    53 vePeliculaSiVisitaLaCiudad[5,2]
                                   0                          -0 
    54 vePeliculaSiVisitaLaCiudad[5,3]
                                   0                          -0 
    55 vePeliculaSiVisitaLaCiudad[5,4]
                                   0                          -0 
    56 vePeliculaSiVisitaLaCiudad[5,5]
                                   0                          -0 
    57 vePeliculaSiVisitaLaCiudad[5,6]
                                   0                          -0 
    58 vePeliculaSiVisitaLaCiudad[5,7]
                                   0                          -0 
    59 vePeliculaSiVisitaLaCiudad[5,8]
                                   0                          -0 
    60 vePeliculaSiVisitaLaCiudad[5,9]
                                   0                          -0 
    61 vePeliculaSiVisitaLaCiudad[5,10]
                                   0                          -0 
    62 vePeliculaSiVisitaLaCiudad[6,1]
                                   0                          -0 
    63 vePeliculaSiVisitaLaCiudad[6,2]
                                  -1                          -0 
    64 vePeliculaSiVisitaLaCiudad[6,3]
                                   0                          -0 
    65 vePeliculaSiVisitaLaCiudad[6,4]
                                  -1                          -0 
    66 vePeliculaSiVisitaLaCiudad[6,5]
                                  -1                          -0 
    67 vePeliculaSiVisitaLaCiudad[6,6]
                                  -1                          -0 
    68 vePeliculaSiVisitaLaCiudad[6,7]
                                  -1                          -0 
    69 vePeliculaSiVisitaLaCiudad[6,8]
                                  -1                          -0 
    70 vePeliculaSiVisitaLaCiudad[6,9]
                                  -1                          -0 
    71 vePeliculaSiVisitaLaCiudad[6,10]
                                   0                          -0 
    72 vePeliculaSiVisitaLaCiudad[7,1]
                                  -1                          -0 
    73 vePeliculaSiVisitaLaCiudad[7,2]
                                  -1                          -0 
    74 vePeliculaSiVisitaLaCiudad[7,3]
                                  -1                          -0 
    75 vePeliculaSiVisitaLaCiudad[7,4]
                                   0                          -0 
    76 vePeliculaSiVisitaLaCiudad[7,5]
                                  -1                          -0 
    77 vePeliculaSiVisitaLaCiudad[7,6]
                                  -1                          -0 
    78 vePeliculaSiVisitaLaCiudad[7,7]
                                  -1                          -0 
    79 vePeliculaSiVisitaLaCiudad[7,8]
                                  -1                          -0 
    80 vePeliculaSiVisitaLaCiudad[7,9]
                                   0                          -0 
    81 vePeliculaSiVisitaLaCiudad[7,10]
                                  -1                          -0 

   No. Column name       Activity     Lower bound   Upper bound
------ ------------    ------------- ------------- -------------
     1 X[1,1]       *              0             0             1 
     2 X[1,2]       *              0             0             1 
     3 X[1,3]       *              0             0             1 
     4 X[1,4]       *              0             0             1 
     5 X[1,5]       *              0             0             1 
     6 X[1,6]       *              0             0             1 
     7 X[1,7]       *              0             0             1 
     8 X[1,8]       *              0             0             1 
     9 X[1,9]       *              0             0             1 
    10 X[1,10]      *              0             0             1 
    11 X[2,1]       *              0             0             1 
    12 X[2,2]       *              0             0             1 
    13 X[2,3]       *              0             0             1 
    14 X[2,4]       *              0             0             1 
    15 X[2,5]       *              0             0             1 
    16 X[2,6]       *              1             0             1 
    17 X[2,7]       *              0             0             1 
    18 X[2,8]       *              1             0             1 
    19 X[2,9]       *              0             0             1 
    20 X[2,10]      *              0             0             1 
    21 X[3,1]       *              0             0             1 
    22 X[3,2]       *              1             0             1 
    23 X[3,3]       *              0             0             1 
    24 X[3,4]       *              0             0             1 
    25 X[3,5]       *              1             0             1 
    26 X[3,6]       *              0             0             1 
    27 X[3,7]       *              1             0             1 
    28 X[3,8]       *              0             0             1 
    29 X[3,9]       *              0             0             1 
    30 X[3,10]      *              0             0             1 
    31 X[4,1]       *              0             0             1 
    32 X[4,2]       *              0             0             1 
    33 X[4,3]       *              0             0             1 
    34 X[4,4]       *              0             0             1 
    35 X[4,5]       *              0             0             1 
    36 X[4,6]       *              0             0             1 
    37 X[4,7]       *              0             0             1 
    38 X[4,8]       *              0             0             1 
    39 X[4,9]       *              0             0             1 
    40 X[4,10]      *              0             0             1 
    41 X[5,1]       *              0             0             1 
    42 X[5,2]       *              0             0             1 
    43 X[5,3]       *              0             0             1 
    44 X[5,4]       *              0             0             1 
    45 X[5,5]       *              0             0             1 
    46 X[5,6]       *              0             0             1 
    47 X[5,7]       *              0             0             1 
    48 X[5,8]       *              0             0             1 
    49 X[5,9]       *              0             0             1 
    50 X[5,10]      *              0             0             1 
    51 X[6,1]       *              1             0             1 
    52 X[6,2]       *              0             0             1 
    53 X[6,3]       *              1             0             1 
    54 X[6,4]       *              0             0             1 
    55 X[6,5]       *              0             0             1 
    56 X[6,6]       *              0             0             1 
    57 X[6,7]       *              0             0             1 
    58 X[6,8]       *              0             0             1 
    59 X[6,9]       *              0             0             1 
    60 X[6,10]      *              1             0             1 
    61 X[7,1]       *              0             0             1 
    62 X[7,2]       *              0             0             1 
    63 X[7,3]       *              0             0             1 
    64 X[7,4]       *              1             0             1 
    65 X[7,5]       *              0             0             1 
    66 X[7,6]       *              0             0             1 
    67 X[7,7]       *              0             0             1 
    68 X[7,8]       *              0             0             1 
    69 X[7,9]       *              1             0             1 
    70 X[7,10]      *              0             0             1 
    71 Y[1]         *              0             0             1 
    72 Y[2]         *              1             0             1 
    73 Y[3]         *              1             0             1 
    74 Y[4]         *              0             0             1 
    75 Y[5]         *              0             0             1 
    76 Y[6]         *              1             0             1 
    77 Y[7]         *              1             0             1 

Integer feasibility conditions:

KKT.PE: max.abs.err = 0.00e+00 on row 0
        max.rel.err = 0.00e+00 on row 0
        High quality

KKT.PB: max.abs.err = 0.00e+00 on row 0
        max.rel.err = 0.00e+00 on row 0
        High quality

End of output
